# Solution for model r3_t9_m3_6
# Finished Task: 3 / 9
# Makespan: 521.0, Total Distance: 173.0, Total Time: 0.2240
# R O S F
0 0 10 277.0 277.0
1 1 -1 267.0 267.0
2 2 6 339.0 339.0
3 -1 -1 629.0 654.0
4 -1 -1 551.0 579.0
5 2 -1 499.0 521.0
6 2 5 380.0 402.0
7 -1 -1 579.0 608.0
8 -1 -1 521.0 551.0
9 -1 -1 630.0 654.0
10 0 -1 475.0 499.0
11 -1 -1 608.0 629.0
